(set-logic ALL)
(declare-fun var0 () String)
(assert (str.in_re var0 (re.++ (re.union (re.union (str.to_re "000") (str.to_re "1")) (re.union (str.to_re "222") (str.to_re "3"))) (re.++ (re.+ (re.union (str.to_re "4") (str.to_re "55"))) (re.++ (re.+ (re.+ (str.to_re "666"))) (re.++ (re.+ (re.union (str.to_re "777") (str.to_re "888"))) (re.++ (re.* (re.union (str.to_re "9") (str.to_re "a"))) (re.union (re.+ (str.to_re "b")) (re.+ (str.to_re "c"))))))))))
(assert (not (str.in_re var0 (re.++ (re.union (re.+ (str.to_re "0")) (re.+ (str.to_re "111"))) (re.++ (re.+ (re.union (str.to_re "222") (str.to_re "33"))) (re.++ (re.* (re.union (str.to_re "444") (str.to_re "555"))) (re.++ (re.+ (re.+ (str.to_re "666"))) (re.++ (re.union (re.+ (str.to_re "7")) (re.+ (str.to_re "8"))) (re.union (re.union (str.to_re "999") (str.to_re "aa")) (re.union (str.to_re "bbb") (str.to_re "cc")))))))))))
(check-sat)